sat
(
  (define-fun I () String
    "")
  (define-fun F () String
    "a")
  (define-fun L () String
    "")
  (define-fun H () String
    "")
  (define-fun P () String
    "")
  (define-fun R () String
    "aa")
)
